Using license file /home/benedond/gurobi.lic
Using gurobi.env file
Set parameter Threads to value 1
Academic license - for non-commercial use only
Changed value of parameter TimeLimit to 300.0
   Prev: inf  Min: 0.0  Max: inf  Default: inf
Gurobi Optimizer version 9.0.1 build v9.0.1rc0 (linux64)
Optimize a model with 8325 rows, 4140 columns and 32578 nonzeros
Model fingerprint: 0xc25f811d
Variable types: 45 continuous, 4095 integer (4050 binary)
Coefficient statistics:
  Matrix range     [2e-01, 7e+03]
  Objective range  [5e-04, 1e-01]
  Bounds range     [1e+00, 1e+00]
  RHS range        [1e+00, 7e+03]

---------------------------------------------------------------------------
Multi-objectives: starting optimization with 1 objectives ... 
---------------------------------------------------------------------------
---------------------------------------------------------------------------

Multi-objectives: optimize objective 1 (min avg power cons) ...
---------------------------------------------------------------------------

Optimize a model with 8325 rows, 4140 columns and 32578 nonzeros
Variable types: 45 continuous, 4095 integer (4050 binary)
Coefficient statistics:
  Matrix range     [2e-01, 7e+03]
  Objective range  [5e-04, 1e-01]
  Bounds range     [1e+00, 1e+00]
  RHS range        [1e+00, 7e+03]
Presolve removed 3930 rows and 1965 columns
Presolve time: 0.57s
Presolved: 4395 rows, 2175 columns, 16858 nonzeros
Variable types: 45 continuous, 2130 integer (2085 binary)

Root relaxation: objective 1.468903e+00, 649 iterations, 0.03 seconds

    Nodes    |    Current Node    |     Objective Bounds      |     Work
 Expl Unexpl |  Obj  Depth IntInf | Incumbent    BestBd   Gap | It/Node Time

     0     0    1.46890    0  116          -    1.46890      -     -    1s
     0     0    1.46890    0  116          -    1.46890      -     -    1s
     0     0    1.46890    0  111          -    1.46890      -     -    2s
     0     0    1.46890    0  132          -    1.46890      -     -    2s
     0     0    1.46890    0  120          -    1.46890      -     -    2s
     0     0    1.51327    0  120          -    1.51327      -     -    2s
     0     0    1.53767    0  122          -    1.53767      -     -    2s
     0     0    1.54878    0  149          -    1.54878      -     -    3s
     0     0    1.56811    0  199          -    1.56811      -     -    3s
     0     0    1.59750    0  137          -    1.59750      -     -    3s
H    0     0                       3.9692315    1.59750  59.8%     -    3s
H    0     0                       3.9377083    1.59750  59.4%     -    3s
     0     0    1.62478    0  160    3.93771    1.62478  58.7%     -    3s
     0     0    1.63429    0  176    3.93771    1.63429  58.5%     -    3s
H    0     0                       3.4429259    1.63429  52.5%     -    3s
H    0     0                       3.2280232    1.63429  49.4%     -    3s
     0     0    1.63938    0  198    3.22802    1.63938  49.2%     -    3s
     0     0    1.71581    0  194    3.22802    1.71581  46.8%     -    3s
     0     0    1.72088    0  223    3.22802    1.72088  46.7%     -    4s
     0     0    1.74041    0  226    3.22802    1.74041  46.1%     -    4s
     0     0    1.74486    0  221    3.22802    1.74486  45.9%     -    4s
     0     0    1.75973    0  228    3.22802    1.75973  45.5%     -    4s
     0     0    1.76590    0  279    3.22802    1.76590  45.3%     -    4s
     0     0    1.78485    0  271    3.22802    1.78485  44.7%     -    4s
     0     0    1.79354    0  218    3.22802    1.79354  44.4%     -    4s
     0     0    1.80440    0  250    3.22802    1.80440  44.1%     -    5s
     0     0    1.80904    0  296    3.22802    1.80904  44.0%     -    5s
     0     0    1.81543    0  274    3.22802    1.81543  43.8%     -    5s
H    0     0                       3.0496945    1.81543  40.5%     -    5s
     0     0    1.81771    0  285    3.04969    1.81771  40.4%     -    5s
     0     0    1.81909    0  280    3.04969    1.81909  40.4%     -    5s
     0     0    1.81950    0  282    3.04969    1.81950  40.3%     -    5s
     0     0    1.81998    0  273    3.04969    1.81998  40.3%     -    5s
     0     0    1.82007    0  289    3.04969    1.82007  40.3%     -    5s
     0     0    1.82639    0  270    3.04969    1.82639  40.1%     -    5s
     0     0    1.82909    0  318    3.04969    1.82909  40.0%     -    5s
     0     0    1.83043    0  271    3.04969    1.83043  40.0%     -    5s
     0     0    1.83064    0  293    3.04969    1.83064  40.0%     -    5s
     0     0    1.83071    0  306    3.04969    1.83071  40.0%     -    5s
     0     0    1.83448    0  290    3.04969    1.83448  39.8%     -    6s
     0     0    1.83654    0  311    3.04969    1.83654  39.8%     -    6s
     0     0    1.83692    0  322    3.04969    1.83692  39.8%     -    6s
     0     0    1.83702    0  324    3.04969    1.83702  39.8%     -    6s
     0     0    1.83897    0  341    3.04969    1.83897  39.7%     -    6s
     0     0    1.83934    0  310    3.04969    1.83934  39.7%     -    6s
     0     0    1.83970    0  281    3.04969    1.83970  39.7%     -    6s
     0     0    1.83987    0  297    3.04969    1.83987  39.7%     -    6s
     0     0    1.83995    0  270    3.04969    1.83995  39.7%     -    6s
     0     0    1.84099    0  310    3.04969    1.84099  39.6%     -    7s
     0     0    1.84137    0  340    3.04969    1.84137  39.6%     -    7s
     0     0    1.84147    0  334    3.04969    1.84147  39.6%     -    7s
     0     0    1.84375    0  303    3.04969    1.84375  39.5%     -    7s
     0     0    1.84422    0  305    3.04969    1.84422  39.5%     -    7s
     0     0    1.84436    0  308    3.04969    1.84436  39.5%     -    7s
     0     0    1.84440    0  314    3.04969    1.84440  39.5%     -    7s
     0     0    1.84551    0  292    3.04969    1.84551  39.5%     -    7s
     0     0    1.84586    0  284    3.04969    1.84586  39.5%     -    7s
     0     0    1.84596    0  292    3.04969    1.84596  39.5%     -    7s
     0     0    1.84633    0  363    3.04969    1.84633  39.5%     -    7s
     0     0    1.84656    0  340    3.04969    1.84656  39.5%     -    7s
     0     0    1.84664    0  314    3.04969    1.84664  39.4%     -    7s
     0     0    1.84724    0  298    3.04969    1.84724  39.4%     -    7s
     0     0    1.84724    0  296    3.04969    1.84724  39.4%     -    8s
     0     2    1.84729    0  296    3.04969    1.84729  39.4%     -    8s
H   27    27                       3.0428241    1.85275  39.1%   376    9s
    37    39    2.05495   24  134    3.04282    1.85275  39.1%   328   10s
H   81    79                       3.0415278    1.85275  39.1%   278   11s
H  380   344                       3.0341250    1.85782  38.8%  93.7   14s
H  407   371                       3.0209583    1.85782  38.5%  91.3   14s
   410   376    2.71831  185  260    3.02096    1.85782  38.5%  91.3   15s
   523   470    2.21096   40  271    3.02096    1.86263  38.3%  88.0   20s
H  527   449                       2.9970232    1.86263  37.9%  87.3   21s
   532   452    2.22993   66  355    2.99702    1.86265  37.9%  86.5   28s
   534   455    1.95737   11  195    2.99702    1.86265  37.9%   105   30s
   554   469    1.94258   21  234    2.99702    1.86265  37.9%   121   35s
   590   493    2.02735   39  158    2.99702    1.86265  37.9%   141   40s
H  665   512                       2.9797963    1.86265  37.5%   146   43s
   719   550    2.27479  104  135    2.97980    1.86265  37.5%   140   45s
   944   668    2.59367  216   96    2.97980    1.86265  37.5%   127   50s
  1125   731    1.92959   37  238    2.97980    1.86265  37.5%   125   55s
H 1193   750                       2.9716759    1.86265  37.3%   130   58s
  1249   789    2.20810   99  126    2.97168    1.86265  37.3%   131   60s
  1561   964    2.67774  255   64    2.97168    1.86265  37.3%   114   65s
  1844  1141    2.54339  152   77    2.97168    1.86692  37.2%   109   70s
  1975  1216    2.69278  218   56    2.97168    1.86692  37.2%   103   76s
  2083  1306    2.20949   87  114    2.97168    1.86692  37.2%   103   80s
  2440  1616    2.80603  350   57    2.97168    1.86692  37.2%  90.7   85s
  2573  1726    2.22646   86  125    2.97168    1.88036  36.7%  94.6   90s
  3098  2189     cutoff  351         2.97168    1.88087  36.7%  87.1   95s
  3705  2710    2.16292   30  120    2.97168    1.89418  36.3%  79.3  100s
  4330  3232    2.03882   33  302    2.97168    1.89872  36.1%  74.3  105s
  4811  3667    2.75442  198  107    2.97168    1.89997  36.1%  71.2  110s
  4875  3708    1.98838   39  233    2.97168    1.90001  36.1%  74.3  115s
  5110  3934    2.61748  156   67    2.97168    1.90001  36.1%  76.2  120s
  5730  4459    2.36647  108   78    2.97168    1.90347  35.9%  72.4  125s
  5907  4620    2.75893  240   60    2.97168    1.90347  35.9%  70.8  131s
  6099  4763    2.02167   26  259    2.97168    1.90771  35.8%  70.2  135s
  6301  4933    1.93421   18  291    2.97168    1.91121  35.7%  71.0  140s
  6632  5211    2.32217   38  194    2.97168    1.91452  35.6%  71.0  145s
  7156  5671    2.34311   27  152    2.97168    1.92006  35.4%  69.9  150s
  7683  6067    2.50734   29  186    2.97168    1.92312  35.3%  69.9  155s
  8091  6404    2.44410   88   94    2.97168    1.92710  35.2%  70.0  160s
  8539  6765    2.18614   44  236    2.97168    1.92830  35.1%  69.2  165s
  8822  6960    2.31470   29  225    2.97168    1.93003  35.1%  70.0  170s
  9327  7396    2.05508   32  299    2.97168    1.93207  35.0%  69.8  175s
  9632  7655    2.32879   45  199    2.97168    1.93295  35.0%  70.2  180s
 10073  7989    2.24385   46  128    2.97168    1.93620  34.8%  70.2  185s
 10203  8102    2.70022   79  116    2.97168    1.93775  34.8%  69.7  225s
 10211  8107    2.10473   47  333    2.97168    1.93775  34.8%  69.6  230s
 10219  8113    2.67347   67  308    2.97168    1.93775  34.8%  69.6  235s
 10227  8118    2.65676  151  323    2.97168    1.93775  34.8%  69.5  240s
 10236  8124    2.65833  168  331    2.97168    1.93775  34.8%  69.5  245s
 10245  8130    2.59133   49  348    2.97168    1.93775  34.8%  69.4  250s
 10253  8135    2.74384  181  304    2.97168    1.93775  34.8%  69.4  255s
 10261  8141    2.83610  148  359    2.97168    1.93775  34.8%  69.3  260s
 10269  8146    2.36937   53  304    2.97168    1.93775  34.8%  69.2  266s
 10276  8151    2.86919   68  298    2.97168    1.93775  34.8%  69.2  270s
 10283  8155    2.80809  179  283    2.97168    1.93775  34.8%  69.2  275s
 10291  8161    2.87378  209  284    2.97168    1.93775  34.8%  69.1  280s
 10299  8166    2.43429  201  340    2.97168    1.93775  34.8%  69.0  286s
 10307  8171    2.63640  169  290    2.97168    1.93775  34.8%  69.0  290s
 10315  8177    2.88480  199  334    2.97168    1.93775  34.8%  68.9  295s

Cutting planes:
  Gomory: 1
  Implied bound: 39
  Projected implied bound: 5
  MIR: 158
  Flow cover: 194
  GUB cover: 53
  RLT: 1
  Relax-and-lift: 106

Explored 10322 nodes (786412 simplex iterations) in 300.02 seconds
Thread count was 1 (of 4 available processors)

Solution count 10: 2.97168 2.9798 2.99702 ... 3.44293

Time limit reached
Best objective 2.971675939409e+00, best bound 1.937753964759e+00, gap 34.7926%

---------------------------------------------------------------------------
Multi-objectives: stopped in 300.03 seconds, solution count 10
Time Limit reached

